min: t;

x12 + x13 + x14 + x15 + x16 + x17 = 1;
x21 + x23 + x24 + x25 + x26 + x27 = 1;
x31 + x32 + x34 + x35 + x36 + x37 = 1;
x41 + x42 + x43 + x45 + x46 + x47 = 1;
x51 + x52 + x53 + x54 + x56 + x57 = 1;
x61 + x62 + x63 + x64 + x65 + x67 = 1;
x71 + x72 + x73 + x74 + x75 + x76 = 1;

x21 + x31 + x41 + x51 + x61 + x71 = 1;
x12 + x32 + x42 + x52 + x62 + x72 = 1;
x13 + x23 + x43 + x53 + x63 + x73 = 1;
x14 + x24 + x34 + x54 + x64 + x74 = 1;
x15 + x25 + x35 + x45 + x65 + x75 = 1;
x16 + x26 + x36 + x46 + x56 + x76 = 1;
x17 + x27 + x37 + x47 + x57 + x67 = 1;

t1 + 19.2 - 7000000 + 7000000 x12 <=  t2;
t1 + 50.9 - 7000000 + 7000000 x13 <=  t3;
t1 + 52.0 - 7000000 + 7000000 x14 <=  t4;
t1 + 57.2 - 7000000 + 7000000 x15 <=  t5;
t1 + 58.7 - 7000000 + 7000000 x16 <=  t6;
t1 + 68.0 - 7000000 + 7000000 x17 <=  t7;

t2 + 19.8 - 7000000 + 7000000 x21 <=  t;
t2 + 50.7 - 7000000 + 7000000 x23 <=  t3;
t2 + 53.5 - 7000000 + 7000000 x24 <=  t4;
t2 + 60.0 - 7000000 + 7000000 x25 <=  t5;
t2 + 56.0 - 7000000 + 7000000 x26 <=  t6;
t2 + 66.4 - 7000000 + 7000000 x27 <=  t7;

t3 + 49.1 - 7000000 + 7000000 x31 <=  t;
t3 + 48.3 - 7000000 + 7000000 x32 <=  t2;
t3 + 12.6 - 7000000 + 7000000 x34 <=  t4;
t3 + 20.7 - 7000000 + 7000000 x35 <=  t5;
t3 + 18.3 - 7000000 + 7000000 x36 <=  t6;
t3 + 23.8 - 7000000 + 7000000 x37 <=  t7;

t4 + 48.1 - 7000000 + 7000000 x41 <=  t;
t4 + 49.0 - 7000000 + 7000000 x42 <=  t2;
t4 + 10.5 - 7000000 + 7000000 x43 <=  t3;
t4 + 12.3 - 7000000 + 7000000 x45 <=  t5;
t4 + 21.7 - 7000000 + 7000000 x46 <=  t6;
t4 + 24.1 - 7000000 + 7000000 x47 <=  t7;

t5 + 51.7 - 7000000 + 7000000 x51 <=  t;
t5 + 53.9 - 7000000 + 7000000 x52 <=  t2;
t5 + 17.0 - 7000000 + 7000000 x53 <=  t3;
t5 + 10.7 - 7000000 + 7000000 x54 <=  t4;
t5 + 26.6 - 7000000 + 7000000 x56 <=  t6;
t5 + 25.4 - 7000000 + 7000000 x57 <=  t7;

t6 + 56.0 - 7000000 + 7000000 x61 <=  t;
t6 + 52.7 - 7000000 + 7000000 x62 <=  t2;
t6 + 17.4 - 7000000 + 7000000 x63 <=  t3;
t6 + 22.9 - 7000000 + 7000000 x64 <=  t4;
t6 + 29.4 - 7000000 + 7000000 x65 <=  t5;
t6 + 16.4 - 7000000 + 7000000 x67 <=  t7;

t7 + 62.5 - 7000000 + 7000000 x71 <=  t;
t7 + 60.3 - 7000000 + 7000000 x72 <=  t2;
t7 + 20.1 - 7000000 + 7000000 x73 <=  t3;
t7 + 22.5 - 7000000 + 7000000 x74 <=  t4;
t7 + 25.4 - 7000000 + 7000000 x75 <=  t5;
t7 + 13.6 - 7000000 + 7000000 x76 <=  t6;


0.0 <= t1 <= 0.0;
10.0 <= t2 <= 20.0;
120.0 <= t3 <= 150.0;
120.0 <= t4 <= 150.0;
120.0 <= t5 <= 150.0;
60.0 <= t6 <= 80.0;
90.0 <= t7 <= 130.0;

bin x12, x13, x14, x15, x16, x17, x21, x23, x24, x25, x26, x27, x31, x32, x34, x35, x36, x37, x41, x42, x43, x45, x46, x47, x51, x52, x53, x54, x56, x57, x61, x62, x63, x64, x65, x67, x71, x72, x73, x74, x75, x76;